NAME          DCAP_2_4_3_300_SS197
ROWS
 N  OBJ
 L  CON1
 L  CON2
 L  CON3
 L  CON4
 L  CON5
 L  CON6
 L  CON7
 L  CON8
 L  CON9
 L  CON10
 L  CON11
 L  CON12
 E  CON13
 E  CON14
 E  CON15
 E  CON16
 E  CON17
 E  CON18
 E  CON19
 E  CON20
 E  CON21
 E  CON22
 E  CON23
 E  CON24
COLUMNS
    x[1,1]    OBJ       6.180167      CON1      1.000000    
    x[1,1]    CON7      -1.000000     CON8      -1.000000   
    x[1,1]    CON9      -1.000000   
    x[1,2]    OBJ       6.563535      CON2      1.000000    
    x[1,2]    CON8      -1.000000     CON9      -1.000000   
    x[1,3]    OBJ       7.443064      CON3      1.000000    
    x[1,3]    CON9      -1.000000   
    x[2,1]    OBJ       6.732585      CON4      1.000000    
    x[2,1]    CON10     -1.000000     CON11     -1.000000   
    x[2,1]    CON12     -1.000000   
    x[2,2]    OBJ       5.039546      CON5      1.000000    
    x[2,2]    CON11     -1.000000     CON12     -1.000000   
    x[2,3]    OBJ       6.054841      CON6      1.000000    
    x[2,3]    CON12     -1.000000   
    MARKER    'MARKER'                'INTORG'
    u[1,1]    OBJ       48.076654     CON1      -1.000000   
    u[1,2]    OBJ       20.066487     CON2      -1.000000   
    u[1,3]    OBJ       32.230043     CON3      -1.000000   
    u[2,1]    OBJ       49.996186     CON4      -1.000000   
    u[2,2]    OBJ       49.466655     CON5      -1.000000   
    u[2,3]    OBJ       27.484319     CON6      -1.000000   
    y[1,1,1]  OBJ       9.125146      CON7      0.891580    
    y[1,1,1]  CON13     1.000000    
    y[1,1,2]  OBJ       9.778808      CON8      0.695862    
    y[1,1,2]  CON14     1.000000    
    y[1,1,3]  OBJ       9.888375      CON9      1.480223    
    y[1,1,3]  CON15     1.000000    
    y[1,2,1]  OBJ       8.729943      CON7      0.706912    
    y[1,2,1]  CON16     1.000000    
    y[1,2,2]  OBJ       5.740198      CON8      0.877189    
    y[1,2,2]  CON17     1.000000    
    y[1,2,3]  OBJ       6.320844      CON9      0.516219    
    y[1,2,3]  CON18     1.000000    
    y[1,3,1]  OBJ       6.609145      CON7      1.328660    
    y[1,3,1]  CON19     1.000000    
    y[1,3,2]  OBJ       7.559956      CON8      1.335066    
    y[1,3,2]  CON20     1.000000    
    y[1,3,3]  OBJ       6.951458      CON9      0.622959    
    y[1,3,3]  CON21     1.000000    
    y[1,4,1]  OBJ       9.504631      CON7      0.907034    
    y[1,4,1]  CON22     1.000000    
    y[1,4,2]  OBJ       9.100152      CON8      0.645146    
    y[1,4,2]  CON23     1.000000    
    y[1,4,3]  OBJ       8.432966      CON9      0.642711    
    y[1,4,3]  CON24     1.000000    
    y[2,1,1]  OBJ       8.921442      CON10     0.891580    
    y[2,1,1]  CON13     1.000000    
    y[2,1,2]  OBJ       6.380980      CON11     0.695862    
    y[2,1,2]  CON14     1.000000    
    y[2,1,3]  OBJ       5.635777      CON12     1.480223    
    y[2,1,3]  CON15     1.000000    
    y[2,2,1]  OBJ       7.451522      CON10     0.706912    
    y[2,2,1]  CON16     1.000000    
    y[2,2,2]  OBJ       7.520366      CON11     0.877189    
    y[2,2,2]  CON17     1.000000    
    y[2,2,3]  OBJ       6.453266      CON12     0.516219    
    y[2,2,3]  CON18     1.000000    
    y[2,3,1]  OBJ       7.073091      CON10     1.328660    
    y[2,3,1]  CON19     1.000000    
    y[2,3,2]  OBJ       5.517691      CON11     1.335066    
    y[2,3,2]  CON20     1.000000    
    y[2,3,3]  OBJ       5.659178      CON12     0.622959    
    y[2,3,3]  CON21     1.000000    
    y[2,4,1]  OBJ       6.629648      CON10     0.907034    
    y[2,4,1]  CON22     1.000000    
    y[2,4,2]  OBJ       6.467939      CON11     0.645146    
    y[2,4,2]  CON23     1.000000    
    y[2,4,3]  OBJ       6.404807      CON12     0.642711    
    y[2,4,3]  CON24     1.000000    
    z[1,1]    OBJ       928.735498    CON13     1.000000    
    z[1,2]    OBJ       965.491215    CON14     1.000000    
    z[1,3]    OBJ       810.704045    CON15     1.000000    
    z[2,1]    OBJ       626.326450    CON16     1.000000    
    z[2,2]    OBJ       543.132759    CON17     1.000000    
    z[2,3]    OBJ       960.294637    CON18     1.000000    
    z[3,1]    OBJ       602.517730    CON19     1.000000    
    z[3,2]    OBJ       712.369940    CON20     1.000000    
    z[3,3]    OBJ       508.218833    CON21     1.000000    
    z[4,1]    OBJ       786.486196    CON22     1.000000    
    z[4,2]    OBJ       644.369738    CON23     1.000000    
    z[4,3]    OBJ       719.349999    CON24     1.000000    
    MARKER    'MARKER'                 'INTEND'
RHS
    RHS       CON1      -0.000000     CON2      -0.000000   
    RHS       CON3      -0.000000     CON4      -0.000000   
    RHS       CON5      -0.000000     CON6      -0.000000   
    RHS       CON7      -0.000000     CON8      -0.000000   
    RHS       CON9      -0.000000     CON10     -0.000000   
    RHS       CON11     -0.000000     CON12     -0.000000   
    RHS       CON13     1.000000      CON14     1.000000    
    RHS       CON15     1.000000      CON16     1.000000    
    RHS       CON17     1.000000      CON18     1.000000    
    RHS       CON19     1.000000      CON20     1.000000    
    RHS       CON21     1.000000      CON22     1.000000    
    RHS       CON23     1.000000      CON24     1.000000    
BOUNDS
 BV BOUND     u[1,1]  
 BV BOUND     u[1,2]  
 BV BOUND     u[1,3]  
 BV BOUND     u[2,1]  
 BV BOUND     u[2,2]  
 BV BOUND     u[2,3]  
 BV BOUND     y[1,1,1]
 BV BOUND     y[1,1,2]
 BV BOUND     y[1,1,3]
 BV BOUND     y[1,2,1]
 BV BOUND     y[1,2,2]
 BV BOUND     y[1,2,3]
 BV BOUND     y[1,3,1]
 BV BOUND     y[1,3,2]
 BV BOUND     y[1,3,3]
 BV BOUND     y[1,4,1]
 BV BOUND     y[1,4,2]
 BV BOUND     y[1,4,3]
 BV BOUND     y[2,1,1]
 BV BOUND     y[2,1,2]
 BV BOUND     y[2,1,3]
 BV BOUND     y[2,2,1]
 BV BOUND     y[2,2,2]
 BV BOUND     y[2,2,3]
 BV BOUND     y[2,3,1]
 BV BOUND     y[2,3,2]
 BV BOUND     y[2,3,3]
 BV BOUND     y[2,4,1]
 BV BOUND     y[2,4,2]
 BV BOUND     y[2,4,3]
 BV BOUND     z[1,1]  
 BV BOUND     z[1,2]  
 BV BOUND     z[1,3]  
 BV BOUND     z[2,1]  
 BV BOUND     z[2,2]  
 BV BOUND     z[2,3]  
 BV BOUND     z[3,1]  
 BV BOUND     z[3,2]  
 BV BOUND     z[3,3]  
 BV BOUND     z[4,1]  
 BV BOUND     z[4,2]  
 BV BOUND     z[4,3]  
ENDATA
